-218.0 4.0 4.0 9.0 3.0 1.0 4.0 1.0 0.0 5.0 3.0 4.0 10.0 8.0 4.0 1.0 5.0 8.0 5.0 0.0 0.0 3.0 2.0 3.0 2.0 2.0 5.0 5.0 9.0 4.0 2.0 6.0 5.0 2.0 1.0 3.0 8.0 3.0 2.0 5.0 4.0 8.0 1.0 9.0 0.0 0.0 0.0 8.0 10.0 7.0 2.0 0.0 3.0 3.0 4.0 6.0 2.0 
4.0 -274.0 3.0 8.0 6.0 2.0 9.0 8.0 1.0 3.0 10.0 1.0 5.0 6.0 10.0 5.0 6.0 4.0 9.0 5.0 6.0 5.0 3.0 2.0 1.0 3.0 4.0 9.0 2.0 1.0 3.0 9.0 2.0 3.0 6.0 3.0 10.0 5.0 1.0 9.0 10.0 1.0 1.0 2.0 4.0 9.0 8.0 9.0 7.0 9.0 10.0 1.0 4.0 7.0 0.0 0.0 0.0 
4.0 3.0 -268.0 2.0 5.0 1.0 9.0 3.0 8.0 10.0 2.0 3.0 10.0 10.0 10.0 6.0 3.0 2.0 0.0 7.0 9.0 2.0 6.0 9.0 1.0 8.0 6.0 3.0 9.0 7.0 0.0 4.0 8.0 7.0 9.0 3.0 2.0 5.0 1.0 5.0 2.0 4.0 0.0 2.0 5.0 8.0 6.0 0.0 4.0 3.0 5.0 10.0 3.0 2.0 5.0 6.0 1.0 
9.0 8.0 2.0 -246.0 4.0 4.0 3.0 3.0 1.0 1.0 4.0 3.0 9.0 1.0 4.0 0.0 5.0 3.0 3.0 10.0 0.0 0.0 3.0 2.0 10.0 1.0 2.0 4.0 6.0 2.0 1.0 3.0 7.0 9.0 9.0 6.0 8.0 8.0 7.0 9.0 10.0 3.0 5.0 1.0 9.0 2.0 6.0 7.0 1.0 5.0 4.0 6.0 2.0 1.0 6.0 4.0 0.0 
3.0 6.0 5.0 4.0 -278.0 7.0 1.0 2.0 7.0 10.0 8.0 10.0 10.0 10.0 5.0 10.0 0.0 5.0 6.0 4.0 4.0 9.0 5.0 1.0 8.0 8.0 5.0 0.0 7.0 1.0 1.0 9.0 10.0 1.0 0.0 1.0 10.0 0.0 3.0 7.0 4.0 3.0 3.0 9.0 0.0 0.0 6.0 0.0 5.0 8.0 8.0 5.0 1.0 7.0 5.0 3.0 8.0 
1.0 2.0 1.0 4.0 7.0 -228.0 5.0 2.0 3.0 7.0 6.0 7.0 6.0 2.0 4.0 8.0 4.0 5.0 4.0 4.0 0.0 8.0 5.0 5.0 1.0 2.0 2.0 6.0 2.0 7.0 9.0 3.0 2.0 10.0 3.0 2.0 8.0 7.0 2.0 2.0 0.0 1.0 4.0 7.0 2.0 1.0 4.0 10.0 4.0 3.0 3.0 2.0 5.0 2.0 8.0 3.0 1.0 
4.0 9.0 9.0 3.0 1.0 5.0 -322.0 9.0 3.0 5.0 8.0 4.0 3.0 9.0 1.0 6.0 2.0 5.0 4.0 6.0 3.0 10.0 1.0 10.0 2.0 8.0 5.0 8.0 5.0 1.0 9.0 3.0 10.0 7.0 9.0 7.0 7.0 1.0 6.0 10.0 8.0 6.0 3.0 10.0 9.0 7.0 10.0 5.0 7.0 6.0 5.0 1.0 5.0 10.0 1.0 5.0 6.0 
1.0 8.0 3.0 3.0 2.0 2.0 9.0 -257.0 0.0 6.0 4.0 7.0 2.0 1.0 8.0 8.0 0.0 6.0 8.0 0.0 8.0 8.0 5.0 8.0 10.0 8.0 10.0 5.0 2.0 8.0 3.0 4.0 8.0 5.0 6.0 0.0 1.0 0.0 5.0 4.0 2.0 9.0 1.0 2.0 5.0 0.0 10.0 3.0 9.0 3.0 9.0 1.0 1.0 9.0 4.0 3.0 0.0 
0.0 1.0 8.0 1.0 7.0 3.0 3.0 0.0 -284.0 8.0 9.0 6.0 5.0 4.0 6.0 8.0 9.0 5.0 3.0 3.0 4.0 8.0 1.0 7.0 3.0 9.0 1.0 1.0 1.0 10.0 1.0 7.0 7.0 5.0 5.0 3.0 9.0 6.0 3.0 9.0 0.0 8.0 5.0 8.0 4.0 7.0 4.0 10.0 8.0 3.0 10.0 10.0 7.0 3.0 4.0 0.0 4.0 
5.0 3.0 10.0 1.0 10.0 7.0 5.0 6.0 8.0 -299.0 7.0 2.0 4.0 6.0 3.0 7.0 10.0 1.0 4.0 10.0 7.0 5.0 2.0 0.0 9.0 5.0 7.0 0.0 7.0 1.0 2.0 1.0 8.0 4.0 8.0 7.0 7.0 8.0 8.0 0.0 7.0 2.0 0.0 10.0 8.0 7.0 6.0 9.0 7.0 7.0 8.0 6.0 1.0 6.0 6.0 4.0 0.0 
3.0 10.0 2.0 4.0 8.0 6.0 8.0 4.0 9.0 7.0 -291.0 5.0 8.0 6.0 4.0 9.0 7.0 8.0 7.0 2.0 0.0 1.0 9.0 3.0 3.0 7.0 3.0 6.0 4.0 0.0 8.0 8.0 1.0 2.0 6.0 9.0 8.0 5.0 0.0 1.0 7.0 4.0 3.0 7.0 2.0 5.0 8.0 6.0 9.0 2.0 3.0 8.0 7.0 0.0 7.0 2.0 10.0 
4.0 1.0 3.0 3.0 10.0 7.0 4.0 7.0 6.0 2.0 5.0 -274.0 3.0 0.0 10.0 9.0 0.0 10.0 1.0 0.0 6.0 6.0 4.0 8.0 8.0 0.0 7.0 5.0 8.0 4.0 0.0 1.0 10.0 2.0 6.0 0.0 10.0 5.0 10.0 8.0 1.0 9.0 8.0 1.0 5.0 0.0 8.0 0.0 10.0 8.0 10.0 6.0 1.0 7.0 2.0 1.0 4.0 
10.0 5.0 10.0 9.0 10.0 6.0 3.0 2.0 5.0 4.0 8.0 3.0 -282.0 4.0 3.0 8.0 6.0 7.0 0.0 6.0 2.0 6.0 7.0 5.0 8.0 4.0 5.0 2.0 2.0 2.0 3.0 4.0 6.0 6.0 8.0 7.0 1.0 3.0 4.0 1.0 5.0 7.0 2.0 6.0 0.0 9.0 9.0 1.0 3.0 9.0 9.0 10.0 5.0 1.0 2.0 6.0 3.0 
8.0 6.0 10.0 1.0 10.0 2.0 9.0 1.0 4.0 6.0 6.0 0.0 4.0 -300.0 5.0 8.0 5.0 1.0 0.0 6.0 9.0 3.0 7.0 6.0 4.0 0.0 10.0 8.0 8.0 10.0 5.0 9.0 4.0 0.0 3.0 1.0 3.0 6.0 0.0 9.0 6.0 7.0 7.0 9.0 7.0 5.0 8.0 2.0 10.0 5.0 6.0 7.0 3.0 8.0 4.0 7.0 2.0 
4.0 10.0 10.0 4.0 5.0 4.0 1.0 8.0 6.0 3.0 4.0 10.0 3.0 5.0 -304.0 0.0 10.0 8.0 9.0 1.0 7.0 6.0 4.0 6.0 8.0 6.0 9.0 9.0 9.0 6.0 1.0 3.0 7.0 2.0 1.0 6.0 8.0 9.0 1.0 6.0 9.0 5.0 6.0 5.0 7.0 10.0 2.0 2.0 6.0 3.0 3.0 0.0 2.0 9.0 2.0 6.0 8.0 
1.0 5.0 6.0 0.0 10.0 8.0 6.0 8.0 8.0 7.0 9.0 9.0 8.0 8.0 0.0 -289.0 1.0 9.0 0.0 3.0 3.0 2.0 9.0 9.0 1.0 6.0 8.0 2.0 5.0 9.0 4.0 9.0 1.0 3.0 6.0 10.0 10.0 5.0 2.0 1.0 10.0 6.0 1.0 9.0 2.0 5.0 2.0 7.0 1.0 1.0 4.0 9.0 9.0 3.0 5.0 4.0 0.0 
5.0 6.0 3.0 5.0 0.0 4.0 2.0 0.0 9.0 10.0 7.0 0.0 6.0 5.0 10.0 1.0 -254.0 0.0 1.0 0.0 2.0 7.0 6.0 6.0 0.0 9.0 5.0 6.0 7.0 9.0 2.0 6.0 6.0 8.0 2.0 3.0 9.0 1.0 2.0 6.0 4.0 7.0 2.0 7.0 7.0 1.0 0.0 5.0 5.0 1.0 8.0 8.0 1.0 4.0 0.0 10.0 8.0 
8.0 4.0 2.0 3.0 5.0 5.0 5.0 6.0 5.0 1.0 8.0 10.0 7.0 1.0 8.0 9.0 0.0 -299.0 0.0 9.0 7.0 8.0 5.0 4.0 9.0 2.0 1.0 2.0 3.0 9.0 10.0 2.0 7.0 9.0 2.0 7.0 4.0 9.0 10.0 7.0 7.0 7.0 7.0 7.0 7.0 6.0 0.0 10.0 6.0 7.0 0.0 7.0 9.0 0.0 6.0 0.0 0.0 
5.0 9.0 0.0 3.0 6.0 4.0 4.0 8.0 3.0 4.0 7.0 1.0 0.0 0.0 9.0 0.0 1.0 0.0 -215.0 6.0 0.0 8.0 5.0 2.0 7.0 3.0 0.0 5.0 1.0 8.0 9.0 3.0 2.0 3.0 8.0 6.0 5.0 6.0 1.0 5.0 2.0 4.0 6.0 2.0 10.0 3.0 6.0 2.0 3.0 3.0 5.0 6.0 0.0 3.0 0.0 0.0 3.0 
0.0 5.0 7.0 10.0 4.0 4.0 6.0 0.0 3.0 10.0 2.0 0.0 6.0 6.0 1.0 3.0 0.0 9.0 6.0 -280.0 8.0 8.0 6.0 8.0 7.0 2.0 8.0 3.0 9.0 10.0 6.0 7.0 8.0 9.0 6.0 7.0 3.0 2.0 10.0 2.0 10.0 7.0 4.0 0.0 4.0 0.0 1.0 7.0 0.0 0.0 4.0 5.0 9.0 2.0 7.0 5.0 4.0 
0.0 6.0 9.0 0.0 4.0 0.0 3.0 8.0 4.0 7.0 0.0 6.0 2.0 9.0 7.0 3.0 2.0 7.0 0.0 8.0 -241.0 2.0 4.0 6.0 7.0 7.0 5.0 6.0 1.0 2.0 2.0 6.0 1.0 2.0 4.0 6.0 8.0 0.0 2.0 6.0 6.0 6.0 0.0 8.0 3.0 0.0 8.0 10.0 1.0 9.0 2.0 9.0 6.0 3.0 5.0 2.0 1.0 
3.0 5.0 2.0 0.0 9.0 8.0 10.0 8.0 8.0 5.0 1.0 6.0 6.0 3.0 6.0 2.0 7.0 8.0 8.0 8.0 2.0 -306.0 5.0 6.0 1.0 10.0 9.0 7.0 9.0 8.0 10.0 0.0 5.0 3.0 0.0 5.0 7.0 7.0 9.0 3.0 2.0 10.0 10.0 2.0 2.0 6.0 10.0 5.0 3.0 2.0 3.0 3.0 9.0 10.0 4.0 0.0 6.0 
2.0 3.0 6.0 3.0 5.0 5.0 1.0 5.0 1.0 2.0 9.0 4.0 7.0 7.0 4.0 9.0 6.0 5.0 5.0 6.0 4.0 5.0 -262.0 3.0 10.0 7.0 0.0 8.0 4.0 8.0 9.0 0.0 2.0 2.0 9.0 0.0 1.0 7.0 1.0 9.0 1.0 7.0 5.0 10.0 0.0 7.0 9.0 4.0 1.0 1.0 5.0 1.0 6.0 5.0 4.0 4.0 8.0 
3.0 2.0 9.0 2.0 1.0 5.0 10.0 8.0 7.0 0.0 3.0 8.0 5.0 6.0 6.0 9.0 6.0 4.0 2.0 8.0 6.0 6.0 3.0 -273.0 6.0 5.0 3.0 4.0 1.0 2.0 1.0 5.0 0.0 9.0 3.0 2.0 8.0 1.0 1.0 2.0 2.0 1.0 9.0 10.0 2.0 10.0 7.0 7.0 1.0 10.0 10.0 2.0 3.0 5.0 7.0 10.0 5.0 
2.0 1.0 1.0 10.0 8.0 1.0 2.0 10.0 3.0 9.0 3.0 8.0 8.0 4.0 8.0 1.0 0.0 9.0 7.0 7.0 7.0 1.0 10.0 6.0 -295.0 7.0 10.0 1.0 6.0 10.0 1.0 8.0 10.0 9.0 1.0 8.0 7.0 4.0 8.0 8.0 1.0 0.0 4.0 4.0 2.0 0.0 9.0 7.0 7.0 10.0 6.0 1.0 3.0 9.0 0.0 3.0 5.0 
2.0 3.0 8.0 1.0 8.0 2.0 8.0 8.0 9.0 5.0 7.0 0.0 4.0 0.0 6.0 6.0 9.0 2.0 3.0 2.0 7.0 10.0 7.0 5.0 7.0 -280.0 2.0 10.0 4.0 1.0 1.0 6.0 2.0 8.0 1.0 1.0 1.0 0.0 5.0 6.0 5.0 8.0 9.0 4.0 5.0 7.0 3.0 8.0 0.0 8.0 0.0 9.0 10.0 10.0 1.0 7.0 9.0 
5.0 4.0 6.0 2.0 5.0 2.0 5.0 10.0 1.0 7.0 3.0 7.0 5.0 10.0 9.0 8.0 5.0 1.0 0.0 8.0 5.0 9.0 0.0 3.0 10.0 2.0 -297.0 5.0 9.0 8.0 7.0 6.0 4.0 2.0 4.0 0.0 10.0 10.0 5.0 3.0 5.0 1.0 8.0 4.0 2.0 1.0 8.0 8.0 10.0 0.0 10.0 5.0 9.0 6.0 5.0 0.0 10.0 
5.0 9.0 3.0 4.0 0.0 6.0 8.0 5.0 1.0 0.0 6.0 5.0 2.0 8.0 9.0 2.0 6.0 2.0 5.0 3.0 6.0 7.0 8.0 4.0 1.0 10.0 5.0 -275.0 4.0 1.0 7.0 6.0 5.0 3.0 4.0 8.0 1.0 4.0 9.0 10.0 2.0 4.0 4.0 4.0 7.0 9.0 1.0 2.0 9.0 5.0 0.0 9.0 10.0 2.0 5.0 7.0 3.0 
9.0 2.0 9.0 6.0 7.0 2.0 5.0 2.0 1.0 7.0 4.0 8.0 2.0 8.0 9.0 5.0 7.0 3.0 1.0 9.0 1.0 9.0 4.0 1.0 6.0 4.0 9.0 4.0 -258.0 1.0 0.0 8.0 6.0 8.0 1.0 10.0 2.0 5.0 0.0 3.0 0.0 0.0 6.0 4.0 3.0 4.0 2.0 8.0 5.0 0.0 7.0 0.0 1.0 10.0 7.0 4.0 9.0 
4.0 1.0 7.0 2.0 1.0 7.0 1.0 8.0 10.0 1.0 0.0 4.0 2.0 10.0 6.0 9.0 9.0 9.0 8.0 10.0 2.0 8.0 8.0 2.0 10.0 1.0 8.0 1.0 1.0 -285.0 6.0 7.0 8.0 1.0 7.0 6.0 5.0 3.0 4.0 2.0 9.0 7.0 10.0 2.0 10.0 1.0 1.0 2.0 2.0 5.0 6.0 1.0 5.0 8.0 9.0 4.0 4.0 
2.0 3.0 0.0 1.0 1.0 9.0 9.0 3.0 1.0 2.0 8.0 0.0 3.0 5.0 1.0 4.0 2.0 10.0 9.0 6.0 2.0 10.0 9.0 1.0 1.0 1.0 7.0 7.0 0.0 6.0 -277.0 10.0 8.0 4.0 6.0 8.0 1.0 8.0 8.0 10.0 7.0 5.0 4.0 7.0 2.0 0.0 9.0 9.0 10.0 5.0 7.0 7.0 3.0 0.0 8.0 4.0 4.0 
6.0 9.0 4.0 3.0 9.0 3.0 3.0 4.0 7.0 1.0 8.0 1.0 4.0 9.0 3.0 9.0 6.0 2.0 3.0 7.0 6.0 0.0 0.0 5.0 8.0 6.0 6.0 6.0 8.0 7.0 10.0 -296.0 2.0 0.0 6.0 4.0 5.0 8.0 3.0 5.0 3.0 10.0 2.0 8.0 10.0 8.0 8.0 3.0 9.0 6.0 5.0 4.0 2.0 3.0 9.0 8.0 2.0 
5.0 2.0 8.0 7.0 10.0 2.0 10.0 8.0 7.0 8.0 1.0 10.0 6.0 4.0 7.0 1.0 6.0 7.0 2.0 8.0 1.0 5.0 2.0 0.0 10.0 2.0 4.0 5.0 6.0 8.0 8.0 2.0 -272.0 3.0 8.0 1.0 5.0 1.0 10.0 6.0 8.0 6.0 0.0 10.0 0.0 8.0 3.0 8.0 5.0 1.0 5.0 4.0 3.0 0.0 3.0 1.0 1.0 
2.0 3.0 7.0 9.0 1.0 10.0 7.0 5.0 5.0 4.0 2.0 2.0 6.0 0.0 2.0 3.0 8.0 9.0 3.0 9.0 2.0 3.0 2.0 9.0 9.0 8.0 2.0 3.0 8.0 1.0 4.0 0.0 3.0 -244.0 4.0 1.0 7.0 1.0 10.0 2.0 3.0 0.0 3.0 8.0 4.0 3.0 1.0 3.0 2.0 1.0 0.0 4.0 9.0 10.0 5.0 10.0 2.0 
1.0 6.0 9.0 9.0 0.0 3.0 9.0 6.0 5.0 8.0 6.0 6.0 8.0 3.0 1.0 6.0 2.0 2.0 8.0 6.0 4.0 0.0 9.0 3.0 1.0 1.0 4.0 4.0 1.0 7.0 6.0 6.0 8.0 4.0 -271.0 8.0 9.0 6.0 10.0 1.0 0.0 4.0 9.0 4.0 3.0 0.0 3.0 9.0 10.0 1.0 7.0 1.0 5.0 3.0 7.0 1.0 8.0 
3.0 3.0 3.0 6.0 1.0 2.0 7.0 0.0 3.0 7.0 9.0 0.0 7.0 1.0 6.0 10.0 3.0 7.0 6.0 7.0 6.0 5.0 0.0 2.0 8.0 1.0 0.0 8.0 10.0 6.0 8.0 4.0 1.0 1.0 8.0 -262.0 7.0 8.0 9.0 4.0 10.0 10.0 7.0 2.0 7.0 0.0 1.0 1.0 0.0 7.0 0.0 2.0 5.0 6.0 8.0 1.0 8.0 
8.0 10.0 2.0 8.0 10.0 8.0 7.0 1.0 9.0 7.0 8.0 10.0 1.0 3.0 8.0 10.0 9.0 4.0 5.0 3.0 8.0 7.0 1.0 8.0 7.0 1.0 10.0 1.0 2.0 5.0 1.0 5.0 5.0 7.0 9.0 7.0 -329.0 9.0 5.0 0.0 2.0 10.0 9.0 10.0 10.0 9.0 0.0 1.0 4.0 2.0 9.0 7.0 10.0 3.0 0.0 7.0 7.0 
3.0 5.0 5.0 8.0 0.0 7.0 1.0 0.0 6.0 8.0 5.0 5.0 3.0 6.0 9.0 5.0 1.0 9.0 6.0 2.0 0.0 7.0 7.0 1.0 4.0 0.0 10.0 4.0 5.0 3.0 8.0 8.0 1.0 1.0 6.0 8.0 9.0 -263.0 9.0 4.0 1.0 2.0 8.0 8.0 4.0 0.0 6.0 3.0 6.0 3.0 7.0 6.0 4.0 1.0 6.0 9.0 0.0 
2.0 1.0 1.0 7.0 3.0 2.0 6.0 5.0 3.0 8.0 0.0 10.0 4.0 0.0 1.0 2.0 2.0 10.0 1.0 10.0 2.0 9.0 1.0 1.0 8.0 5.0 5.0 9.0 0.0 4.0 8.0 3.0 10.0 10.0 10.0 9.0 5.0 9.0 -292.0 1.0 2.0 4.0 8.0 9.0 1.0 9.0 8.0 9.0 2.0 5.0 3.0 0.0 10.0 7.0 9.0 9.0 10.0 
5.0 9.0 5.0 9.0 7.0 2.0 10.0 4.0 9.0 0.0 1.0 8.0 1.0 9.0 6.0 1.0 6.0 7.0 5.0 2.0 6.0 3.0 9.0 2.0 8.0 6.0 3.0 10.0 3.0 2.0 10.0 5.0 6.0 2.0 1.0 4.0 0.0 4.0 1.0 -280.0 6.0 8.0 2.0 4.0 1.0 9.0 1.0 2.0 8.0 9.0 0.0 5.0 4.0 8.0 6.0 7.0 9.0 
4.0 10.0 2.0 10.0 4.0 0.0 8.0 2.0 0.0 7.0 7.0 1.0 5.0 6.0 9.0 10.0 4.0 7.0 2.0 10.0 6.0 2.0 1.0 2.0 1.0 5.0 5.0 2.0 0.0 9.0 7.0 3.0 8.0 3.0 0.0 10.0 2.0 1.0 2.0 6.0 -278.0 9.0 7.0 6.0 0.0 10.0 8.0 4.0 1.0 10.0 7.0 7.0 0.0 9.0 5.0 5.0 7.0 
8.0 1.0 4.0 3.0 3.0 1.0 6.0 9.0 8.0 2.0 4.0 9.0 7.0 7.0 5.0 6.0 7.0 7.0 4.0 7.0 6.0 10.0 7.0 1.0 0.0 8.0 1.0 4.0 0.0 7.0 5.0 10.0 6.0 0.0 4.0 10.0 10.0 2.0 4.0 8.0 9.0 -287.0 1.0 6.0 9.0 7.0 8.0 0.0 2.0 4.0 0.0 4.0 1.0 6.0 2.0 8.0 9.0 
1.0 1.0 0.0 5.0 3.0 4.0 3.0 1.0 5.0 0.0 3.0 8.0 2.0 7.0 6.0 1.0 2.0 7.0 6.0 4.0 0.0 10.0 5.0 9.0 4.0 9.0 8.0 4.0 6.0 10.0 4.0 2.0 0.0 3.0 9.0 7.0 9.0 8.0 8.0 2.0 7.0 1.0 -282.0 5.0 9.0 7.0 6.0 1.0 9.0 7.0 1.0 7.0 10.0 8.0 10.0 6.0 2.0 
9.0 2.0 2.0 1.0 9.0 7.0 10.0 2.0 8.0 10.0 7.0 1.0 6.0 9.0 5.0 9.0 7.0 7.0 2.0 0.0 8.0 2.0 10.0 10.0 4.0 4.0 4.0 4.0 4.0 2.0 7.0 8.0 10.0 8.0 4.0 2.0 10.0 8.0 9.0 4.0 6.0 6.0 5.0 -324.0 3.0 0.0 10.0 5.0 4.0 1.0 10.0 9.0 6.0 10.0 1.0 3.0 10.0 
0.0 4.0 5.0 9.0 0.0 2.0 9.0 5.0 4.0 8.0 2.0 5.0 0.0 7.0 7.0 2.0 7.0 7.0 10.0 4.0 3.0 2.0 0.0 2.0 2.0 5.0 2.0 7.0 3.0 10.0 2.0 10.0 0.0 4.0 3.0 7.0 10.0 4.0 1.0 1.0 0.0 9.0 9.0 3.0 -252.0 5.0 2.0 6.0 9.0 3.0 0.0 3.0 8.0 1.0 8.0 7.0 4.0 
0.0 9.0 8.0 2.0 0.0 1.0 7.0 0.0 7.0 7.0 5.0 0.0 9.0 5.0 10.0 5.0 1.0 6.0 3.0 0.0 0.0 6.0 7.0 10.0 0.0 7.0 1.0 9.0 4.0 1.0 0.0 8.0 8.0 3.0 0.0 0.0 9.0 0.0 9.0 9.0 10.0 7.0 7.0 0.0 5.0 -250.0 10.0 4.0 0.0 0.0 5.0 9.0 4.0 7.0 2.0 3.0 1.0 
0.0 8.0 6.0 6.0 6.0 4.0 10.0 10.0 4.0 6.0 8.0 8.0 9.0 8.0 2.0 2.0 0.0 0.0 6.0 1.0 8.0 10.0 9.0 7.0 9.0 3.0 8.0 1.0 2.0 1.0 9.0 8.0 3.0 1.0 3.0 1.0 0.0 6.0 8.0 1.0 8.0 8.0 6.0 10.0 2.0 10.0 -289.0 6.0 0.0 2.0 5.0 4.0 2.0 6.0 9.0 8.0 1.0 
8.0 9.0 0.0 7.0 0.0 10.0 5.0 3.0 10.0 9.0 6.0 0.0 1.0 2.0 2.0 7.0 5.0 10.0 2.0 7.0 10.0 5.0 4.0 7.0 7.0 8.0 8.0 2.0 8.0 2.0 9.0 3.0 8.0 3.0 9.0 1.0 1.0 3.0 9.0 2.0 4.0 0.0 1.0 5.0 6.0 4.0 6.0 -286.0 2.0 3.0 7.0 4.0 8.0 2.0 8.0 6.0 8.0 
10.0 7.0 4.0 1.0 5.0 4.0 7.0 9.0 8.0 7.0 9.0 10.0 3.0 10.0 6.0 1.0 5.0 6.0 3.0 0.0 1.0 3.0 1.0 1.0 7.0 0.0 10.0 9.0 5.0 2.0 10.0 9.0 5.0 2.0 10.0 0.0 4.0 6.0 2.0 8.0 1.0 2.0 9.0 4.0 9.0 0.0 0.0 2.0 -292.0 7.0 5.0 10.0 5.0 7.0 5.0 10.0 6.0 
7.0 9.0 3.0 5.0 8.0 3.0 6.0 3.0 3.0 7.0 2.0 8.0 9.0 5.0 3.0 1.0 1.0 7.0 3.0 0.0 9.0 2.0 1.0 10.0 10.0 8.0 0.0 5.0 0.0 5.0 5.0 6.0 1.0 1.0 1.0 7.0 2.0 3.0 5.0 9.0 10.0 4.0 7.0 1.0 3.0 0.0 2.0 3.0 7.0 -258.0 7.0 6.0 0.0 10.0 6.0 6.0 3.0 
2.0 10.0 5.0 4.0 8.0 3.0 5.0 9.0 10.0 8.0 3.0 10.0 9.0 6.0 3.0 4.0 8.0 0.0 5.0 4.0 2.0 3.0 5.0 10.0 6.0 0.0 10.0 0.0 7.0 6.0 7.0 5.0 5.0 0.0 7.0 0.0 9.0 7.0 3.0 0.0 7.0 0.0 1.0 10.0 0.0 5.0 5.0 7.0 5.0 7.0 -274.0 0.0 10.0 1.0 0.0 8.0 0.0 
0.0 1.0 10.0 6.0 5.0 2.0 1.0 1.0 10.0 6.0 8.0 6.0 10.0 7.0 0.0 9.0 8.0 7.0 6.0 5.0 9.0 3.0 1.0 2.0 1.0 9.0 5.0 9.0 0.0 1.0 7.0 4.0 4.0 4.0 1.0 2.0 7.0 6.0 0.0 5.0 7.0 4.0 7.0 9.0 3.0 9.0 4.0 4.0 10.0 6.0 0.0 -272.0 5.0 0.0 8.0 4.0 4.0 
3.0 4.0 3.0 2.0 1.0 5.0 5.0 1.0 7.0 1.0 7.0 1.0 5.0 3.0 2.0 9.0 1.0 9.0 0.0 9.0 6.0 9.0 6.0 3.0 3.0 10.0 9.0 10.0 1.0 5.0 3.0 2.0 3.0 9.0 5.0 5.0 10.0 4.0 10.0 4.0 0.0 1.0 10.0 6.0 8.0 4.0 2.0 8.0 5.0 0.0 10.0 5.0 -267.0 0.0 4.0 7.0 2.0 
3.0 7.0 2.0 1.0 7.0 2.0 10.0 9.0 3.0 6.0 0.0 7.0 1.0 8.0 9.0 3.0 4.0 0.0 3.0 2.0 3.0 10.0 5.0 5.0 9.0 10.0 6.0 2.0 10.0 8.0 0.0 3.0 0.0 10.0 3.0 6.0 3.0 1.0 7.0 8.0 9.0 6.0 8.0 10.0 1.0 7.0 6.0 2.0 7.0 10.0 1.0 0.0 0.0 -273.0 2.0 4.0 4.0 
4.0 0.0 5.0 6.0 5.0 8.0 1.0 4.0 4.0 6.0 7.0 2.0 2.0 4.0 2.0 5.0 0.0 6.0 0.0 7.0 5.0 4.0 4.0 7.0 0.0 1.0 5.0 5.0 7.0 9.0 8.0 9.0 3.0 5.0 7.0 8.0 0.0 6.0 9.0 6.0 5.0 2.0 10.0 1.0 8.0 2.0 9.0 8.0 5.0 6.0 0.0 8.0 4.0 2.0 -266.0 1.0 9.0 
6.0 0.0 6.0 4.0 3.0 3.0 5.0 3.0 0.0 4.0 2.0 1.0 6.0 7.0 6.0 4.0 10.0 0.0 0.0 5.0 2.0 0.0 4.0 10.0 3.0 7.0 0.0 7.0 4.0 4.0 4.0 8.0 1.0 10.0 1.0 1.0 7.0 9.0 9.0 7.0 5.0 8.0 6.0 3.0 7.0 3.0 8.0 6.0 10.0 6.0 8.0 4.0 7.0 4.0 1.0 -260.0 1.0 
2.0 0.0 1.0 0.0 8.0 1.0 6.0 0.0 4.0 0.0 10.0 4.0 3.0 2.0 8.0 0.0 8.0 0.0 3.0 4.0 1.0 6.0 8.0 5.0 5.0 9.0 10.0 3.0 9.0 4.0 4.0 2.0 1.0 2.0 8.0 8.0 7.0 0.0 10.0 9.0 7.0 9.0 2.0 10.0 4.0 1.0 1.0 8.0 6.0 3.0 0.0 4.0 2.0 4.0 9.0 1.0 -246.0 

